SDVRP instances/custom_instances/p01_19_splitx10_0.vrp
NAME:p01_19_splitx10_
BEST_KNOWN: 0
COMMENT: 0
DIMENSION: 227
CAPACITY: 1600
EDGE_WEIGHT_FORMAT: FUNCTION
EDGE_WEIGHT_TYPE: EXACT_2D
NODE_COORD_SECTION
1 0.00000 0.00000
2 21 39
3 21 39
4 21 39
5 -40 -44
6 -40 -44
7 -40 -44
8 -40 -44
9 -40 -44
10 6 -22
11 6 -22
12 6 -22
13 6 -22
14 6 -22
15 6 -22
16 6 -22
17 -26 45
18 -26 45
19 -26 45
20 -26 45
21 -26 45
22 -26 45
23 -26 45
24 45 -2
25 45 -2
26 45 -2
27 45 -2
28 45 -2
29 45 -2
30 -30 3
31 -30 3
32 -30 3
33 -30 3
34 -30 3
35 -36 -50
36 -36 -50
37 -36 -50
38 -36 -50
39 -36 -50
40 -35 34
41 -35 34
42 -35 34
43 25 5
44 13 -17
45 13 -17
46 13 -17
47 13 -17
48 35 37
49 35 37
50 40 -36
51 40 -36
52 40 -36
53 40 -36
54 -11 -25
55 -11 -25
56 -11 -25
57 12 -37
58 12 -37
59 12 -37
60 12 -37
61 12 -37
62 -33 41
63 -33 41
64 -33 41
65 -33 41
66 -33 41
67 -33 41
68 -46 -9
69 -46 -9
70 -26 -20
71 -26 -20
72 -26 -20
73 -26 -20
74 -26 -20
75 -26 -20
76 -41 -4
77 -41 -4
78 -41 -4
79 -41 0
80 -41 0
81 -41 0
82 -41 0
83 -47 -14
84 -47 -14
85 -47 -14
86 -47 -14
87 -47 -14
88 12 -36
89 12 -36
90 12 -36
91 12 -36
92 -8 9
93 -8 9
94 -8 9
95 -8 9
96 3 7
97 3 7
98 3 7
99 3 7
100 20 -21
101 20 -21
102 20 -21
103 -10 42
104 -10 42
105 -10 42
106 -10 42
107 -10 42
108 -39 21
109 -39 21
110 -39 21
111 -39 21
112 -39 21
113 -39 21
114 -39 21
115 -15 22
116 -15 22
117 -15 22
118 -15 22
119 -15 22
120 -1 -3
121 -1 -3
122 -1 -3
123 -1 -3
124 25 33
125 25 33
126 25 33
127 25 33
128 25 33
129 25 33
130 -43 12
131 -43 12
132 -43 12
133 -43 12
134 -10 -20
135 -10 -20
136 -10 -20
137 -10 -20
138 -10 -20
139 31 13
140 31 13
141 31 13
142 31 13
143 31 13
144 31 13
145 -39 49
146 -39 49
147 -39 49
148 -39 49
149 -39 49
150 -39 49
151 -39 49
152 -30 1
153 -30 1
154 -37 31
155 -37 31
156 28 -38
157 28 -38
158 28 -38
159 28 -38
160 28 -38
161 39 -41
162 39 -41
163 39 -41
164 39 -41
165 39 -41
166 39 -41
167 39 -41
168 -46 -35
169 -46 -35
170 -46 -35
171 -46 -35
172 -46 -35
173 -46 -35
174 -46 -35
175 39 20
176 39 20
177 39 20
178 39 20
179 -41 11
180 -41 11
181 -41 11
182 -41 11
183 -41 11
184 -41 11
185 33 43
186 33 43
187 -2 8
188 -2 8
189 -2 8
190 -2 8
191 -2 8
192 43 -34
193 43 -34
194 43 -34
195 43 -34
196 -23 36
197 -14 38
198 -14 38
199 -14 38
200 -14 38
201 -14 38
202 -14 38
203 -14 38
204 40 -22
205 40 -22
206 40 -22
207 40 -22
208 40 -22
209 -4 5
210 -4 5
211 -4 5
212 -4 5
213 -4 5
214 -4 5
215 -4 5
216 37 45
217 37 45
218 37 45
219 37 45
220 11 24
221 11 24
222 11 24
223 11 24
224 11 24
225 11 24
226 9 39
227 9 39
DEMAND_SECTION
1 0
2 320
3 80
4 10
5 160
6 16
7 16
8 16
9 12
10 320
11 80
12 16
13 16
14 16
15 16
16 6
17 320
18 160
19 80
20 16
21 16
22 16
23 2
24 160
25 80
26 16
27 16
28 16
29 12
30 320
31 160
32 80
33 16
34 14
35 320
36 320
37 80
38 16
39 4
40 320
41 320
42 10
43 320
44 320
45 160
46 16
47 4
48 160
49 80
50 160
51 80
52 16
53 14
54 160
55 80
56 10
57 320
58 160
59 80
60 16
61 4
62 320
63 160
64 16
65 16
66 16
67 12
68 320
69 160
70 320
71 160
72 16
73 16
74 16
75 2
76 320
77 320
78 80
79 320
80 80
81 16
82 14
83 320
84 160
85 80
86 16
87 14
88 320
89 320
90 16
91 4
92 320
93 160
94 16
95 14
96 320
97 320
98 16
99 4
100 320
101 80
102 10
103 320
104 16
105 16
106 16
107 2
108 160
109 80
110 16
111 16
112 16
113 16
114 6
115 320
116 320
117 16
118 16
119 8
120 320
121 80
122 16
123 4
124 320
125 160
126 16
127 16
128 16
129 2
130 320
131 80
132 16
133 4
134 160
135 16
136 16
137 16
138 12
139 160
140 80
141 16
142 16
143 16
144 12
145 320
146 320
147 80
148 16
149 16
150 16
151 12
152 320
153 320
154 320
155 80
156 320
157 160
158 80
159 16
160 4
161 320
162 80
163 16
164 16
165 16
166 16
167 6
168 320
169 80
170 16
171 16
172 16
173 16
174 6
175 320
176 320
177 16
178 4
179 320
180 320
181 16
182 16
183 16
184 12
185 320
186 320
187 320
188 160
189 16
190 16
191 8
192 320
193 160
194 80
195 10
196 320
197 320
198 320
199 80
200 16
201 16
202 16
203 2
204 160
205 16
206 16
207 16
208 12
209 320
210 160
211 80
212 16
213 16
214 16
215 2
216 320
217 80
218 16
219 4
220 320
221 16
222 16
223 16
224 16
225 6
226 160
227 80
DEPOT_SECTION
1
-1
EOF