SDVRP instances/custom_instances/p01_19_splitx10_0.sol
226 -10 13 12 155 156 158 159 157 100 101 99 43 44 -14 11 9 15 57 58 60 56 59 89 87 90 88 -21 19 22 20 17 18 16 195 118 117 115 91 -29 30 181 179 183 180 178 182 132 130 129 131 -31 33 32 79 81 80 78 75 76 77 151 -34 36 35 37 38 4 8 6 5 7 169 170 171 173 172 167 168 -42 26 23 28 27 25 24 177 176 175 174 141 139 142 143 140 138 -46 45 161 165 162 166 160 164 163 52 49 50 51 192 193 194 191 203 204 207 206 205 -48 47 216 217 218 215 185 184 125 124 128 126 127 -71 73 74 72 70 69 54 55 53 136 135 137 134 133 121 120 119 122 -82 85 86 84 83 68 67 152 -92 93 94 64 62 65 66 61 63 148 150 149 147 144 146 145 -98 97 95 96 186 187 188 208 210 -112 107 108 113 111 110 109 153 154 39 41 40 209 211 212 214 213 -116 114 201 202 200 196 198 197 199 102 103 105 106 104 190 189 -123 1 2 3 226 225 222 219 220 223 224 221 0 





OBJ=
1579.095
BEST_KNOWN=
0.000